c read Graph
c width = 167
c time = 92 ms
c width = 16
c time = 186 ms
c width = 15
c time = 641 ms
c width = 14
c time = 1161 ms
c width = 13
c time = 2807 ms
c width = 13
c time = 5019 ms
s td 159 14 180
b 1 1 2 16
b 2 2 3 16 17
b 3 13 14 29 30
b 4 3 16 17 31
b 5 13 29 30 45
b 6 136 151 152 167
b 7 150 164 165 179
b 8 136 152 167 168
b 9 150 164 178 179
b 10 3 4 5 19
b 11 3 5 18 19 32 46
b 12 5 18 19 32 34 46 48
b 13 5 19 32 34 46 48 62
b 14 5 19 34 46 48 62 76
b 15 5 19 21 34 35 48 62 76
b 16 5 21 34 35 48 50 62 64 76
b 17 34 48 49 50 64
b 18 5 21 35 48 50 62 64 76 78
b 19 48 62 63 64 78
b 20 5 21 35 50 62 64 76 78 92
b 21 62 76 77 78 92
b 22 5 21 35 37 50 51 64 76 78 92
b 23 21 35 36 37 51
b 24 5 21 37 50 51 64 67 76 78 80 81 92
b 25 50 51 64 66 67 80 81
b 26 50 64 65 66 80
b 27 5 21 37 51 53 64 67 76 78 80 81 92
b 28 5 21 37 53 64 67 76 78 80 81 92 95 108 109
b 29 64 78 80 92 94 95 108 109
b 30 64 78 79 80 94
b 31 78 92 93 94 108
b 32 5 9 21 25 37 39 53 67 76 81 92 95 108 109
b 33 9 25 39 53 67 76 81 92 95 108 109 122 136
b 34 9 25 39 53 67 81 95 108 109 122 123 136
b 35 9 25 39 53 67 81 95 109 122 123 136 137
b 36 9 25 39 53 67 81 95 109 123 136 137 139 155 171
b 37 9 25 39 53 67 81 95 109 123 125 137 139 155 171
b 38 9 25 39 53 67 81 95 109 125 139 140 155 171
b 39 9 25 39 53 67 81 95 109 125 140 141 155 171
b 40 9 25 39 53 67 81 95 109 125 141 155 157 171 173
b 41 141 155 156 157 171 173
b 42 157 171 172 173
b 43 9 25 39 53 67 81 95 109 111 125 141 157 173
b 44 9 25 39 53 67 81 95 111 125 127 141 157 173
b 45 111 125 126 127 141
b 46 9 25 39 53 67 81 95 97 111 127 141 157 173
b 47 81 95 96 97 111
b 48 9 25 39 53 67 81 97 111 127 141 143 157 173
b 49 127 141 142 143 157
b 50 9 25 39 53 67 81 97 111 127 143 157 159 173
b 51 9 25 39 53 67 81 97 111 113 127 143 159 173
b 52 97 111 112 113 127
b 53 9 25 39 53 67 81 97 113 127 129 143 159 173
b 54 113 127 128 129 143
b 55 9 25 39 53 67 81 83 97 113 129 143 159 173
b 56 9 25 39 53 67 69 83 97 113 129 143 159 173
b 57 9 25 39 53 69 83 97 99 113 129 143 159 173
b 58 83 97 98 99 113
b 59 9 25 39 53 69 83 85 99 113 129 143 159 173
b 60 69 83 84 85 99
b 61 9 25 39 53 69 85 99 113 115 129 143 159 173
b 62 9 25 39 53 69 85 99 101 115 129 143 159 173
b 63 9 25 39 53 55 69 85 101 115 129 143 159 173
b 64 39 53 54 55 69
b 65 85 99 100 101 115
b 66 99 113 114 115 129
b 67 53 67 68 69 83
b 68 67 81 82 83 97
b 69 143 157 158 159 173
b 70 95 109 110 111 125
b 71 109 123 124 125 139
b 72 123 136 137 139 155 169 171
b 73 155 169 170 171
b 74 123 136 137 139 153 155 169
b 75 139 153 154 155 169
b 76 123 137 138 139 153
b 77 136 137 153 168 169
b 78 136 137 152 153 168
b 79 76 92 106 108 122 136
b 80 92 106 107 108 122
b 81 76 91 92 106
b 82 106 121 122 136
b 83 5 9 21 23 25 37 39 53
b 84 23 37 38 39 53
b 85 5 7 9 21 23 37
b 86 7 8 9 23
b 87 5 6 7 21
b 88 7 21 22 23 37
b 89 9 23 24 25 39
b 90 37 51 52 53 67
b 91 5 19 20 21 35
b 92 46 61 62 76
b 93 32 46 47 48 62
b 94 18 32 33 34 48
b 95 3 18 31 32 46
b 96 3 17 18 31 32
b 97 147 161 162 163 177
b 98 159 173 174 175
b 99 55 69 70 71 85
b 100 101 115 116 117 131
b 101 131 145 146 147 161
b 102 145 159 160 161 175
b 103 120 133 134 147 161 163 177
b 104 71 85 86 87 101
b 105 87 101 102 103 117
b 106 120 133 134 147 161 175 177
b 107 103 104 117 118 120 133 134
b 108 9 25 39 41 55 69 85 101 115 129 143 159 173
b 109 9 25 41 55 69 71 85 101 115 129 143 159 173
b 110 9 25 41 55 56 71 85 101 115 129 143 159 173
b 111 103 104 117 120 133 134 147 161 175
b 112 103 104 117 120 131 133 147 161 175
b 113 103 104 117 120 131 145 147 161 175
b 114 103 104 117 120 131 145 159 161 175
b 115 103 104 117 120 131 145 159 173 175
b 116 9 25 41 56 71 85 101 115 129 143 145 159 173
b 117 9 25 41 56 71 85 101 115 129 131 145 159 173
b 118 9 25 41 56 71 85 101 115 117 131 145 159 173
b 119 9 25 41 56 71 85 87 101 117 131 145 159 173
b 120 9 25 41 56 60 71 72 74 87 88
b 121 9 25 41 56 71 87 101 103 117 131 145 159 173
b 122 9 25 41 56 60 71 74 87 88 104 120
b 123 9 25 41 56 71 87 88 103 104 120
b 124 9 25 41 56 71 87 103 104 117 120 131 145 159 173
b 125 103 104 117 120 131 145 159 173
b 126 129 143 144 145 159
b 127 60 74 88 90 104 120
b 128 90 104 105 120
b 129 60 74 75 90
b 130 74 88 89 90 104
b 131 25 39 40 41 55
b 132 9 25 41 56 58 60 72 74 88
b 133 58 72 73 74 88
b 134 9 25 41 42 56 58 60 72 74
b 135 9 13 25 28 41 42 58 60 74
b 136 13 28 42 44 58 60 74
b 137 13 28 44 45 60
b 138 13 28 29 44 45
b 139 44 58 59 60 74
b 140 28 42 43 44 58
b 141 9 13 25 27 28 41 42
b 142 9 11 13 25 27 41
b 143 9 10 11 25
b 144 11 12 13 27
b 145 11 25 26 27 41
b 146 42 56 57 58 72
b 147 115 129 130 131 145
b 148 117 131 132 133 147
b 149 161 175 176 177
b 150 120 133 134 147 149 163 177
b 151 120 134 149 150 163 177
b 152 120 134 135 150
b 153 149 150 163 177 178
b 154 149 150 163 164 178
b 155 133 147 148 149 163
b 156 104 118 119 120 134
b 157 165 179 180
b 158 151 166 167
b 159 14 15 30
1 2
2 4
3 159
3 5
4 96
5 138
6 158
6 8
7 157
7 9
8 78
9 154
10 11
11 95
11 12
12 94
12 13
13 93
13 14
14 92
14 15
15 91
15 16
16 18
16 17
18 20
18 19
20 22
20 21
22 24
22 23
24 27
24 25
25 26
27 90
27 28
28 32
28 29
29 30
29 31
32 83
32 33
33 79
33 34
34 35
35 36
36 72
36 37
37 71
37 38
38 39
39 40
40 43
40 42
40 41
43 70
43 44
44 46
44 45
46 48
46 47
48 50
48 49
50 69
50 51
51 53
51 52
53 55
53 54
55 68
55 56
56 67
56 57
57 59
57 58
59 61
59 60
61 66
61 62
62 65
62 63
63 108
63 64
72 74
72 73
74 77
74 75
74 76
77 78
79 80
79 81
79 82
83 85
83 89
83 84
85 87
85 88
85 86
95 96
97 103
98 115
99 109
100 118
101 113
102 114
103 150
103 106
104 119
105 121
106 149
106 111
107 156
107 111
108 131
108 109
109 110
110 116
111 112
112 148
112 113
113 114
114 115
115 125
116 126
116 117
117 147
117 118
118 119
119 121
120 132
120 122
121 124
122 127
122 123
123 124
124 125
127 130
127 128
127 129
132 133
132 134
134 146
134 135
135 141
135 136
136 137
136 139
136 140
137 138
141 142
142 143
142 144
142 145
150 155
150 151
151 152
151 153
153 154
